echo

start molecule

title "Title"
charge -1

geometry units angstroms print xyz autosym
 I                     0.00000000     0.00000000     1.88716539
 Cl                    0.00000000     0.00000000    -3.03660307
 C                     0.00000000     0.00000000    -1.11283396
 H                     0.74342354     0.74342354    -0.83714093
 H                    -1.01553544     0.27211190    -0.83714093
 H                     0.27211190    -1.01553544    -0.83714093                                                 
end

basis
  * library def2-svpd
end

ecp
 I library "def2-ecp" 
end

dft
xc b3lyp
mult 1
end

driver
default 
maxiter 99
end

python
from nwgeom import *
geom = ''' 
    geometry noprint adjust
        zcoord
            bond  2 3   %f ccl  constant
        end
    end 
'''
x0=3.000
y0=1.801
xmax=2.171
ymax=3.000
npts=20
xmin = x0 - (xmax-x0)/npts
results = scan_input(geom, \
[xmin], 
[xmax],
npts, 'dft', task_optimize)
fp=open("sn1_ci.dat","w")
for i in range(0,len(results)):
    fp.write(f'{results[i][0][0]} {results[i][1]} \n')
fp.close()

task python 
