echo

start molecule

title "Title"
charge -1

geometry units angstroms print xyz autosym
I        0.0037765943     -0.0037765943     -3.1954706860                 
Cl       0.0000000000      0.0000000000      0.6728488100                 
C        0.0000000000      0.0000000000     -1.1284976200                 
H        0.7352919300      0.7352919300     -1.4730419600                 
H        0.2691355300     -1.0044274600     -1.4730419600                 
H       -1.0044274600      0.2691355300     -1.4730419600                                
end

geometry adjust
        zcoord
            bond 1 3 3.000 cccc constant
	end
end

basis
  * library def2-svpd
end

ecp
 I library "def2-ecp" 
end

dft
xc b3lyp
mult 1
end

driver
default 
maxiter 99
xyz CH3Cl_I
end

task dft optimize
